0 0 0 0
0 1 1 0
0 2 1 0
0 3 0 0
0 4 0 2
0 5 0 5
0 6 2 4
0 7 0 4
0 8 2 4
0 9 2 5
0 10 0 5
0 11 0 4
0 12 0 8
0 13 0 8
0 14 1 4
0 15 1 8
0 16 0 10
0 17 1 10
0 18 0 10
0 19 0 13
0 20 0 14
0 21 1 15
0 22 0 15
0 23 1 8
0 24 1 12
0 25 0 15
0 26 0 16
0 27 0 19
0 28 0 22
0 29 0 18
0 30 0 18
0 31 0 23
